\Problem name: 

Minimize
OBJROW: - x_1_2 - x_1_3 - x_1_4
Subject To
constr(0):  x_1_2 <= 10
constr(1):  x_1_3 <= 8
constr(2):  x_1_4 <= 3
constr(3):  x_2_3 <= 4
constr(4):  x_2_5 <= 4
constr(5):  x_3_5 <= 8
constr(6):  x_3_6 <= 2
constr(7):  x_4_3 <= 3
constr(8):  x_4_5 <= 7
constr(9):  x_4_6 <= 9
constr(10):  x_5_7 <= 10
constr(11):  x_6_7 <= 10
conservacao_2:  - x_1_2 + x_2_3 + x_2_5 = -0
conservacao_3:  - x_1_3 - x_2_3 + x_3_5 + x_3_6 - x_4_3 = -0
conservacao_4:  - x_1_4 + x_4_3 + x_4_5 + x_4_6 = -0
conservacao_5:  - x_2_5 - x_3_5 - x_4_5 + x_5_7 = -0
conservacao_6:  - x_3_6 - x_4_6 + x_6_7 = -0
Bounds
End
